
Gurobi 8.1.1 (linux64, Java) logging started Ter 04 Jun 2019 09:57:20 -03

Academic license - for non-commercial use only
Optimize a model with 602 rows, 40602 columns and 81403 nonzeros
Variable types: 0 continuous, 40602 integer (40602 binary)
Coefficient statistics:
  Matrix range     [1e+00, 2e+03]
  Objective range  [1e+00, 1e+00]
  Bounds range     [1e+00, 1e+00]
  RHS range        [1e+00, 1e+00]
Presolve time: 0.18s
Presolved: 602 rows, 40602 columns, 81403 nonzeros
Variable types: 0 continuous, 40602 integer (40602 binary)
Found heuristic solution: objective 201.0000000

Root relaxation: objective 6.500000e+01, 2253 iterations, 0.41 seconds

    Nodes    |    Current Node    |     Objective Bounds      |     Work
 Expl Unexpl |  Obj  Depth IntInf | Incumbent    BestBd   Gap | It/Node Time

     0     0   65.00000    0  173  201.00000   65.00000  67.7%     -    3s
H    0     0                     199.0000000   65.00000  67.3%     -    3s
H    0     0                      98.0000000   65.00000  33.7%     -    3s
H    0     0                      67.0000000   65.00000  2.99%     -    4s
     0     0   65.00000    0   92   67.00000   65.00000  2.99%     -    4s
     0     0   65.00000    0   85   67.00000   65.00000  2.99%     -    5s
H    0     0                      66.0000000   65.00000  1.52%     -    5s
     0     0   65.00000    0  125   66.00000   65.00000  1.52%     -    5s
     0     0   65.00000    0  121   66.00000   65.00000  1.52%     -    5s
     0     0   65.00000    0   92   66.00000   65.00000  1.52%     -    5s
     0     0   65.00000    0   90   66.00000   65.00000  1.52%     -    6s
     0     2   65.00000    0   90   66.00000   65.00000  1.52%     -    6s
     9     8   65.00000    0   93   66.00000   65.00000  1.52%   479   10s
    18    14 infeasible   11        66.00000   65.00000  1.52%  3006   16s
    21    16   65.00000   13  107   66.00000   65.00000  1.52%  2775   20s
    27    16   65.00000   15  114   66.00000   65.00000  1.52%  2333   26s
    45    16   65.00000   19  107   66.00000   65.00000  1.52%  1618   30s
    91    32   65.00000   28  110   66.00000   65.00000  1.52%   903   37s
   131    52 infeasible   35        66.00000   65.00000  1.52%   670   41s
   436   195   65.00000   75   91   66.00000   65.00000  1.52%   243   45s
   733   305   65.00000   80   97   66.00000   65.00000  1.52%   157   52s
   920   351 infeasible  107        66.00000   65.00000  1.52%   132   55s
  1461   496   65.00000  114   86   66.00000   65.00000  1.52%  94.2   60s
  1795   611   65.00000  128   88   66.00000   65.00000  1.52%  82.4   65s
  1926   638   65.00000  135   87   66.00000   65.00000  1.52%  79.5   72s
  2118   648 infeasible  124        66.00000   65.00000  1.52%  76.2   75s
  2457   746   65.00000  130   84   66.00000   65.00000  1.52%  70.6   80s
  2884   852   65.00000  136   88   66.00000   65.00000  1.52%  66.1   87s
  3219   883 infeasible  138        66.00000   65.00000  1.52%  63.7   91s
  3534   864 infeasible  146        66.00000   65.00000  1.52%  61.6   95s
  3858   932 infeasible  126        66.00000   65.00000  1.52%  59.8  105s
  4314   972 infeasible  138        66.00000   65.00000  1.52%  57.7  112s
  4676   998   65.00000  141   85   66.00000   65.00000  1.52%  56.7  117s
  4867  1018 infeasible  133        66.00000   65.00000  1.52%  56.3  126s
  5196   990 infeasible  135        66.00000   65.00000  1.52%  55.3  131s
  5467   981 infeasible  155        66.00000   65.00000  1.52%  54.4  135s
  6023  1001 infeasible  136        66.00000   65.00000  1.52%  53.1  142s
  6382  1041   65.00000  129   80   66.00000   65.00000  1.52%  52.2  145s
  6725  1091 infeasible  162        66.00000   65.00000  1.52%  51.2  151s
  7097  1171   65.00000  142   86   66.00000   65.00000  1.52%  50.1  157s
  7361  1294   65.00000   66  114   66.00000   65.00000  1.52%  49.5  160s
  7372  1303 infeasible   24        66.00000   65.00000  1.52%  54.1  167s
  7378  1303   65.00000   27  112   66.00000   65.00000  1.52%  54.6  170s
  7401  1303   65.00000   31  113   66.00000   65.00000  1.52%  55.2  175s
  7438  1303   65.00000   40  111   66.00000   65.00000  1.52%  56.4  181s
  7576  1321   65.00000   68  100   66.00000   65.00000  1.52%  56.8  185s
  7965  1310 infeasible   83        66.00000   65.00000  1.52%  55.7  190s
  8404  1330   65.00000   79   95   66.00000   65.00000  1.52%  54.6  195s
  8867  1374   65.00000  159   82   66.00000   65.00000  1.52%  53.6  200s
  9273  1375   65.00000  166   91   66.00000   65.00000  1.52%  52.7  205s
  9594  1321 infeasible  182        66.00000   65.00000  1.52%  52.4  210s
  9829  1186 infeasible  177        66.00000   65.00000  1.52%  52.1  217s
  9994  1137   65.00000  160   87   66.00000   65.00000  1.52%  51.8  220s
 10292  1009 infeasible  179        66.00000   65.00000  1.52%  51.8  225s
 10905   789 infeasible  161        66.00000   65.00000  1.52%  50.8  231s
 11219   807   65.00000  115   89   66.00000   65.00000  1.52%  50.2  236s
 11580   919   65.00000  165   83   66.00000   65.00000  1.52%  50.0  240s
 11748   954   65.00000  140   90   66.00000   65.00000  1.52%  50.1  246s
 12063  1010   65.00000  145   86   66.00000   65.00000  1.52%  50.4  251s
 12455  1043 infeasible  162        66.00000   65.00000  1.52%  50.3  256s
 12763  1053 infeasible  150        66.00000   65.00000  1.52%  50.5  264s
 12922  1049 infeasible  149        66.00000   65.00000  1.52%  50.6  267s
 13296  1080 infeasible  154        66.00000   65.00000  1.52%  51.0  271s
 13647  1131   65.00000  145   89   66.00000   65.00000  1.52%  51.2  281s
 14083  1184   65.00000  145   77   66.00000   65.00000  1.52%  51.3  286s
 14479  1206 infeasible  138        66.00000   65.00000  1.52%  51.4  291s
 14705  1210   65.00000  129   87   66.00000   65.00000  1.52%  51.5  327s
 15014  1220 infeasible  150        66.00000   65.00000  1.52%  52.9  333s
 15201  1254   65.00000  125  111   66.00000   65.00000  1.52%  55.0  336s
 15666  1441 infeasible  140        66.00000   65.00000  1.52%  58.3  346s
 16089  1681   65.00000  154   87   66.00000   65.00000  1.52%  59.5  352s
 16408  1769 infeasible  153        66.00000   65.00000  1.52%  60.6  356s
 16660  1891   65.00000  189   95   66.00000   65.00000  1.52%  61.5  362s
 16818  1914   65.00000  170  105   66.00000   65.00000  1.52%  62.0  365s
 17193  2008   65.00000  155   92   66.00000   65.00000  1.52%  63.0  371s
 17484  2063   65.00000  145   93   66.00000   65.00000  1.52%  64.2  377s
 17734  2190 infeasible  169        66.00000   65.00000  1.52%  64.5  380s
 18149  2256 infeasible  179        66.00000   65.00000  1.52%  66.1  387s
 18283  2259 infeasible  186        66.00000   65.00000  1.52%  66.5  391s
 18518  2236 infeasible  184        66.00000   65.00000  1.52%  67.2  398s
 18693  2300 infeasible  130        66.00000   65.00000  1.52%  67.8  401s
 19198  2548   65.00000  133  107   66.00000   65.00000  1.52%  68.9  407s
 19432  2626   65.00000  181  101   66.00000   65.00000  1.52%  69.2  410s
 19841  2731 infeasible  164        66.00000   65.00000  1.52%  69.4  416s
 20185  2792   65.00000  167   89   66.00000   65.00000  1.52%  69.4  420s
 20617  2992   65.00000  181   90   66.00000   65.00000  1.52%  70.6  430s
 20999  3054 infeasible  192        66.00000   65.00000  1.52%  71.5  436s
 21168  3052 infeasible  197        66.00000   65.00000  1.52%  72.0  440s
 21537  3106   65.00000  200  101   66.00000   65.00000  1.52%  73.3  451s
 21872  3142   65.00000  190   91   66.00000   65.00000  1.52%  75.2  458s
 22054  3196   65.00000  116  109   66.00000   65.00000  1.52%  76.0  460s

Cutting planes:
  Gomory: 62
  Cover: 113
  Clique: 16
  MIR: 1
  Flow cover: 7
  Zero half: 3

Explored 22061 nodes (1731806 simplex iterations) in 463.01 seconds
Thread count was 4 (of 4 available processors)

Solution count 5: 66 67 98 ... 201

Optimal solution found (tolerance 1.00e-04)
Best objective 6.600000000000e+01, best bound 6.600000000000e+01, gap 0.0000%
